(declare-rel fail ())
(declare-rel inv2 (Int Int Int Int Int Int))
(declare-var A Int)
(declare-var B Int)
(declare-var C Int)
(declare-var D Int)
(declare-var E Int)
(declare-var F Int)
(declare-var G Int)
(declare-var H Int)
(declare-var I Int)
(rule (=> (and (= G 0) (= D 3333) (= I 6666) (= 3333 B) (= 9999 C) (= 6666 A))
    (inv2 G D I C B A)))
(rule (let ((a!1 (and (inv2 G D I C B A)
                (= E (+ G 1))
                (= H (ite (< G B) D (+ D 1)))
                (= F (ite (>= D A) (+ I 1) I)))))
  (=> a!1 (inv2 E H F C B A))))
(rule (=> (and (inv2 G D I C B A) (= G C) (not (= I G))) fail))
(query fail)

